benchmarks_CP/INST_36x36/45/inst36x36_45_83.dzn
S=6;
start=[|
-1,	-1,	29,	-1,	18,	-1,	-1,	-1,	27,	-1,	-1,	-1,	26,	-1,	6,	-1,	-1,	5,	22,	-1,	-1,	-1,	-1,	-1,	-1,	-1,	7,	25,	-1,	-1,	-1,	16,	-1,	10,	-1,	-1|
-1,	21,	4,	-1,	27,	-1,	-1,	-1,	-1,	26,	-1,	-1,	-1,	-1,	2,	20,	-1,	-1,	28,	10,	-1,	-1,	-1,	9,	23,	-1,	30,	-1,	-1,	-1,	-1,	18,	-1,	-1,	35,	-1|
-1,	-1,	-1,	3,	22,	24,	1,	-1,	17,	13,	-1,	-1,	-1,	34,	25,	-1,	-1,	18,	11,	-1,	33,	-1,	-1,	35,	8,	5,	14,	-1,	15,	-1,	4,	-1,	6,	28,	30,	36|
-1,	-1,	15,	-1,	30,	19,	3,	14,	4,	-1,	-1,	-1,	13,	-1,	28,	-1,	-1,	9,	7,	-1,	-1,	-1,	29,	17,	33,	26,	32,	-1,	-1,	-1,	-1,	21,	31,	-1,	34,	8|
-1,	25,	8,	28,	16,	13,	-1,	-1,	-1,	-1,	-1,	-1,	32,	-1,	1,	-1,	4,	-1,	-1,	15,	27,	-1,	31,	12,	20,	18,	-1,	29,	-1,	35,	-1,	-1,	7,	9,	-1,	-1|
20,	-1,	-1,	6,	17,	-1,	36,	-1,	15,	-1,	-1,	-1,	-1,	30,	27,	31,	-1,	-1,	24,	-1,	-1,	-1,	-1,	-1,	-1,	-1,	-1,	-1,	11,	-1,	-1,	-1,	-1,	-1,	29,	25|
-1,	-1,	6,	-1,	-1,	4,	19,	15,	-1,	7,	-1,	-1,	-1,	-1,	34,	2,	36,	13,	35,	29,	-1,	30,	-1,	-1,	26,	-1,	-1,	22,	-1,	-1,	-1,	24,	10,	21,	-1,	9|
21,	24,	22,	10,	-1,	15,	32,	-1,	1,	-1,	18,	-1,	-1,	-1,	33,	16,	-1,	-1,	14,	-1,	-1,	-1,	-1,	13,	-1,	-1,	23,	-1,	2,	-1,	-1,	12,	11,	-1,	8,	-1|
23,	19,	-1,	13,	33,	-1,	-1,	-1,	36,	-1,	-1,	-1,	-1,	12,	-1,	-1,	29,	-1,	-1,	-1,	21,	9,	-1,	-1,	11,	4,	10,	-1,	20,	-1,	6,	14,	-1,	-1,	-1,	7|
11,	14,	26,	27,	35,	-1,	-1,	23,	-1,	-1,	29,	-1,	-1,	-1,	-1,	4,	-1,	7,	-1,	-1,	-1,	18,	-1,	-1,	-1,	19,	-1,	-1,	8,	21,	22,	15,	3,	-1,	36,	17|
9,	-1,	32,	-1,	-1,	-1,	4,	-1,	-1,	34,	6,	-1,	-1,	-1,	-1,	22,	26,	-1,	8,	20,	-1,	10,	19,	-1,	-1,	-1,	-1,	-1,	-1,	-1,	16,	29,	-1,	1,	-1,	27|
-1,	20,	34,	-1,	-1,	29,	-1,	-1,	-1,	-1,	21,	33,	-1,	11,	-1,	27,	6,	35,	25,	23,	-1,	16,	-1,	-1,	14,	7,	-1,	-1,	-1,	-1,	19,	32,	-1,	5,	31,	-1|
16,	-1,	30,	-1,	1,	-1,	-1,	18,	-1,	27,	20,	-1,	19,	-1,	-1,	34,	7,	-1,	-1,	-1,	-1,	-1,	-1,	-1,	-1,	-1,	-1,	-1,	13,	9,	10,	22,	23,	-1,	-1,	-1|
-1,	6,	12,	-1,	-1,	-1,	11,	-1,	-1,	5,	-1,	31,	-1,	-1,	9,	-1,	-1,	-1,	23,	-1,	-1,	1,	-1,	26,	-1,	-1,	28,	-1,	-1,	22,	-1,	34,	-1,	-1,	-1,	35|
31,	-1,	-1,	-1,	-1,	-1,	29,	-1,	14,	-1,	10,	-1,	-1,	-1,	8,	33,	-1,	6,	12,	-1,	30,	28,	22,	18,	-1,	-1,	-1,	-1,	-1,	2,	-1,	-1,	-1,	11,	32,	4|
28,	-1,	-1,	-1,	-1,	-1,	15,	9,	35,	32,	7,	30,	23,	-1,	-1,	-1,	14,	-1,	36,	21,	-1,	4,	34,	19,	10,	8,	-1,	-1,	-1,	27,	18,	33,	13,	-1,	-1,	-1|
-1,	-1,	36,	-1,	-1,	-1,	-1,	34,	-1,	-1,	24,	23,	4,	-1,	-1,	17,	-1,	-1,	-1,	14,	-1,	-1,	16,	25,	18,	35,	-1,	31,	-1,	6,	7,	-1,	28,	-1,	27,	29|
27,	-1,	-1,	34,	-1,	-1,	25,	4,	22,	6,	-1,	-1,	16,	-1,	-1,	-1,	-1,	24,	33,	-1,	5,	-1,	-1,	-1,	-1,	-1,	-1,	23,	-1,	-1,	-1,	17,	-1,	15,	-1,	19|
13,	28,	23,	33,	-1,	-1,	-1,	-1,	-1,	-1,	-1,	-1,	6,	16,	-1,	24,	1,	-1,	-1,	-1,	-1,	34,	30,	11,	22,	14,	-1,	-1,	-1,	-1,	-1,	-1,	-1,	31,	-1,	-1|
30,	-1,	-1,	-1,	4,	-1,	34,	36,	-1,	18,	-1,	5,	-1,	-1,	-1,	14,	-1,	-1,	-1,	-1,	13,	-1,	-1,	22,	-1,	-1,	8,	21,	27,	-1,	-1,	-1,	26,	2,	15,	-1|
-1,	3,	-1,	9,	10,	-1,	-1,	-1,	21,	-1,	-1,	17,	34,	-1,	22,	-1,	-1,	19,	-1,	1,	-1,	-1,	-1,	-1,	31,	-1,	-1,	24,	12,	11,	25,	-1,	-1,	6,	-1,	-1|
-1,	-1,	20,	-1,	-1,	-1,	27,	13,	-1,	9,	-1,	25,	29,	-1,	-1,	7,	-1,	32,	-1,	-1,	35,	8,	33,	-1,	1,	30,	16,	-1,	-1,	10,	5,	-1,	34,	-1,	-1,	24|
18,	5,	-1,	24,	14,	-1,	-1,	30,	-1,	-1,	-1,	-1,	33,	26,	36,	-1,	8,	-1,	-1,	-1,	-1,	23,	-1,	-1,	-1,	-1,	-1,	34,	7,	-1,	12,	9,	29,	-1,	-1,	21|
26,	-1,	21,	29,	-1,	25,	14,	7,	33,	-1,	-1,	-1,	-1,	9,	-1,	-1,	-1,	-1,	-1,	-1,	-1,	-1,	-1,	5,	-1,	23,	-1,	4,	-1,	13,	-1,	35,	-1,	-1,	-1,	10|
-1,	-1,	-1,	35,	11,	18,	21,	3,	-1,	36,	-1,	-1,	15,	7,	-1,	30,	-1,	12,	-1,	-1,	-1,	-1,	1,	27,	25,	-1,	-1,	-1,	-1,	8,	-1,	-1,	-1,	-1,	-1,	5|
17,	-1,	-1,	-1,	-1,	10,	-1,	2,	20,	-1,	23,	11,	24,	-1,	-1,	21,	-1,	-1,	-1,	-1,	32,	-1,	-1,	-1,	-1,	-1,	-1,	-1,	33,	1,	-1,	-1,	-1,	-1,	13,	6|
-1,	-1,	28,	-1,	-1,	36,	16,	-1,	25,	-1,	17,	19,	10,	-1,	-1,	6,	-1,	1,	-1,	-1,	9,	-1,	-1,	-1,	-1,	20,	21,	12,	-1,	-1,	-1,	4,	22,	7,	-1,	32|
32,	-1,	16,	31,	3,	-1,	24,	-1,	5,	1,	9,	-1,	-1,	-1,	14,	28,	33,	-1,	-1,	17,	-1,	-1,	11,	36,	-1,	-1,	-1,	13,	34,	-1,	23,	30,	-1,	35,	10,	18|
6,	-1,	25,	-1,	23,	5,	-1,	-1,	-1,	4,	13,	7,	36,	-1,	-1,	19,	11,	-1,	-1,	35,	3,	-1,	-1,	2,	15,	-1,	-1,	28,	-1,	-1,	-1,	-1,	20,	-1,	-1,	-1|
-1,	7,	1,	14,	12,	-1,	-1,	31,	-1,	-1,	-1,	-1,	25,	-1,	-1,	-1,	-1,	-1,	-1,	-1,	-1,	-1,	-1,	21,	35,	-1,	-1,	26,	-1,	23,	-1,	8,	-1,	-1,	-1,	-1|
-1,	-1,	-1,	23,	-1,	-1,	26,	21,	-1,	-1,	3,	-1,	22,	13,	-1,	-1,	5,	-1,	27,	32,	28,	6,	-1,	24,	12,	10,	-1,	-1,	-1,	-1,	34,	-1,	-1,	-1,	20,	-1|
35,	16,	-1,	-1,	20,	28,	13,	6,	-1,	-1,	14,	1,	17,	33,	7,	-1,	-1,	30,	-1,	-1,	-1,	-1,	15,	-1,	27,	21,	-1,	-1,	29,	36,	-1,	-1,	32,	-1,	12,	-1|
25,	18,	2,	-1,	-1,	30,	-1,	16,	-1,	-1,	-1,	32,	27,	-1,	19,	1,	-1,	-1,	34,	33,	22,	12,	10,	-1,	9,	6,	-1,	-1,	23,	-1,	8,	7,	15,	-1,	-1,	31|
-1,	26,	-1,	12,	32,	-1,	-1,	20,	30,	-1,	27,	-1,	2,	21,	-1,	10,	28,	-1,	3,	11,	14,	36,	-1,	8,	16,	24,	18,	-1,	-1,	-1,	33,	6,	19,	13,	-1,	-1|
24,	-1,	-1,	-1,	6,	14,	10,	-1,	9,	-1,	-1,	8,	-1,	-1,	-1,	-1,	25,	-1,	-1,	30,	26,	-1,	-1,	-1,	-1,	-1,	-1,	-1,	1,	19,	-1,	-1,	-1,	-1,	-1,	23|
-1,	15,	-1,	-1,	21,	-1,	-1,	33,	24,	29,	34,	36,	31,	-1,	-1,	12,	-1,	23,	19,	-1,	20,	-1,	-1,	-1,	32,	-1,	-1,	11,	-1,	-1,	-1,	26,	4,	30,	18,	-1|];
